;; sequence(s): A49660
;; terms: 0 1 18 323 5796 104005 1866294 33489287 600940872 10783446409 193501094490 3472236254411 62306751484908 1118049290473933 20062580477045886 360008399296352015 6460088606857290384 115921586524134874897 2080128468827570457762
;; small program: (loop2((2 * (x + x)) + y, x, x + x, 0, 1) div 2) div 2
;; fast program: (loop2((2 * (x + x)) + y, x, x - 1, 1, 0) * (if x <= 0 then 1 else loop2((2 * (x + x)) + y, x, x - 1, 2, 1))) div 2
(set-logic UFNIA)
(define-fun divf ((a Int) (b Int)) Int (ite (< 0 b) (div a b) (div (- a) (- b))))
(declare-fun f0 (Int Int) Int)
(declare-fun g0 (Int) Int)
(declare-fun h0 (Int) Int)
(declare-fun i0 () Int)
(declare-fun j0 () Int)
(declare-fun u0 (Int Int Int) Int)
(declare-fun v0 (Int Int Int) Int)
(declare-fun w0 (Int) Int)
(declare-fun small (Int) Int)
(declare-fun f1 (Int Int) Int)
(declare-fun g1 (Int) Int)
(declare-fun h1 (Int) Int)
(declare-fun i1 () Int)
(declare-fun j1 () Int)
(declare-fun u1 (Int Int Int) Int)
(declare-fun v1 (Int Int Int) Int)
(declare-fun w1 (Int) Int)
(declare-fun f2 (Int Int) Int)
(declare-fun g2 (Int) Int)
(declare-fun h2 (Int) Int)
(declare-fun i2 () Int)
(declare-fun j2 () Int)
(declare-fun u2 (Int Int Int) Int)
(declare-fun v2 (Int Int Int) Int)
(declare-fun w2 (Int) Int)
(declare-fun fast (Int) Int)
(assert (forall ((x Int) (y Int)) (= (f0 x y) (+ (* 2 (+ x x)) y))))
(assert (forall ((x Int)) (= (g0 x) x)))
(assert (forall ((x Int)) (= (h0 x) (+ x x))))
(assert (= i0 0))
(assert (= j0 1))
(assert (forall ((x Int) (y Int) (z Int)) (= (u0 x y z) (ite (<= x 0) y (f0 (u0 (- x 1) y z) (v0 (- x 1) y z))))))
(assert (forall ((x Int) (y Int) (z Int)) (= (v0 x y z) (ite (<= x 0) z (g0 (u0 (- x 1) y z))))))
(assert (forall ((x Int)) (= (w0 x) (u0 (h0 x) i0 j0))))
(assert (forall ((x Int)) (= (small x) (divf (divf (w0 x) 2) 2))))
(assert (forall ((x Int) (y Int)) (= (f1 x y) (+ (* 2 (+ x x)) y))))
(assert (forall ((x Int)) (= (g1 x) x)))
(assert (forall ((x Int)) (= (h1 x) (- x 1))))
(assert (= i1 1))
(assert (= j1 0))
(assert (forall ((x Int) (y Int) (z Int)) (= (u1 x y z) (ite (<= x 0) y (f1 (u1 (- x 1) y z) (v1 (- x 1) y z))))))
(assert (forall ((x Int) (y Int) (z Int)) (= (v1 x y z) (ite (<= x 0) z (g1 (u1 (- x 1) y z))))))
(assert (forall ((x Int)) (= (w1 x) (u1 (h1 x) i1 j1))))
(assert (forall ((x Int) (y Int)) (= (f2 x y) (+ (* 2 (+ x x)) y))))
(assert (forall ((x Int)) (= (g2 x) x)))
(assert (forall ((x Int)) (= (h2 x) (- x 1))))
(assert (= i2 2))
(assert (= j2 1))
(assert (forall ((x Int) (y Int) (z Int)) (= (u2 x y z) (ite (<= x 0) y (f2 (u2 (- x 1) y z) (v2 (- x 1) y z))))))
(assert (forall ((x Int) (y Int) (z Int)) (= (v2 x y z) (ite (<= x 0) z (g2 (u2 (- x 1) y z))))))
(assert (forall ((x Int)) (= (w2 x) (u2 (h2 x) i2 j2))))
(assert (forall ((x Int)) (= (fast x) (divf (* (w1 x) (ite (<= x 0) 1 (w2 x))) 2))))
(assert (exists ((c Int)) (and (>= c 0) (not (= (small c) (fast c))))))
(check-sat)
